(set-logic QF_S)
(declare-fun T_8 () Bool)
(declare-fun T_SELECT_2 () Bool)
(declare-fun PCTEMP_LHS_2 () Int)
(declare-fun T0_9 () String)
(declare-fun T1_9 () String)
(declare-fun var_0xINPUT_13159 () String)
(assert (= var_0xINPUT_13159 (str.++ T0_9 T1_9)))
(assert (not (str.in.re T1_9 (str.to.re "__utmz=169413169."))))
(assert T_8)
(assert (= T_8 (< (- 1) PCTEMP_LHS_2)))
(assert (= PCTEMP_LHS_2 (- 1)))
(assert (= T_SELECT_2 (not (= PCTEMP_LHS_2 (- 1)))))
(assert (= 0 (str.len T0_9))) ; len 0
(assert (not T_SELECT_2))
(check-sat)
